c 32 Maven
c 16 AngularJS
c 12 Server
c 59 PostgreSQL
c 7 False
c 51 Consul
c 31 MessageBroker
c 38 SearchEngine
c 24 MySql
c 25 MySQL
c 48 Client
c 26 EhCache
c 6 AuthenticationType
c 4 ServerSideOption
c 55 LibSass
c 27 HibernateCache
c 22 JWT
c 39 HTTPSession
c 60 SwaggerCodegen
c 33 SQL
c 14 ApplicationType
c 50 Angular4
c 37 Uaa
c 52 Oracle12c
c 46 MicroserviceApplication
c 49 MongoDB
c 9 NoDB
c 17 ClientFrameWork
c 53 Application
c 35 MariaDBDev
c 29 Cucumber
c 28 NoHB
c 47 H2InMemory
c 56 Gatling
c 11 SocialLogIn
c 5 Oauth2
c 18 Cassandra
c 19 H2DiskBased
c 2 ProDataBaseType
c 54 ClusteredHttpSession
c 57 MsSQL
c 23 MsSql
c 1 Oracle
c 10 DataBaseType
c 34 jhipster
c 8 ServiceDiscoveryType
c 21 MicroserviceGateway
c 44 MariaDB
c 58 Monolithic
c 45 WebSocket
c 20 DevDataBaseType
c 41 HazelCast
c 30 TestFramework
c 13 UaaServer
c 3 BuildTool
c 42 Protractor
c 40 PostgreSQLDev
c 15 Gradle
c 36 Infinispan
c 43 Eureka
p cnf 61 644
-1 2 0
-3 4 0
-5 6 0
-7 8 0
-9 10 0
-11 12 0
-13 14 0
-8 4 0
-15 3 0
-16 17 0
-8 4 0
-7 8 0
-1 2 0
-3 4 0
-13 14 0
-18 10 0
-19 20 0
-21 14 0
-22 6 0
-18 10 0
-3 4 0
-2 4 0
-23 20 0
-24 20 0
-25 2 0
-26 27 0
-13 14 0
-28 27 0
-29 30 0
-27 4 0
-9 10 0
-9 10 0
-24 20 0
-5 6 0
-10 4 0
-31 12 0
-32 3 0
-13 14 0
-7 8 0
-33 10 0
-4 12 0
-9 10 0
-12 34 0
-35 20 0
-10 4 0
-11 12 0
-36 27 0
-36 27 0
-5 6 0
-37 6 0
-33 10 0
-7 8 0
-7 8 0
-38 12 0
-36 27 0
-1 2 0
-39 6 0
-40 20 0
-5 6 0
-41 27 0
-42 30 0
-43 8 0
-28 27 0
-6 4 0
-43 8 0
-26 27 0
-32 3 0
-44 2 0
-22 6 0
-45 12 0
-6 4 0
-46 14 0
-47 20 0
-39 6 0
-37 6 0
-48 34 0
-20 4 0
-35 20 0
-2 4 0
-32 3 0
-35 20 0
-24 20 0
-49 10 0
-25 2 0
-50 17 0
-7 8 0
-51 8 0
-33 10 0
-52 20 0
-13 14 0
-42 30 0
-12 34 0
-32 3 0
-14 53 0
-43 8 0
-35 20 0
-17 48 0
-43 8 0
-7 8 0
-31 12 0
-52 20 0
-9 10 0
-36 27 0
-30 53 0
-40 20 0
-39 6 0
-51 8 0
-7 8 0
-15 3 0
-15 3 0
-26 27 0
-36 27 0
-37 6 0
-32 3 0
-29 30 0
-43 8 0
-20 4 0
-39 6 0
-47 20 0
-22 6 0
-37 6 0
-2 4 0
-28 27 0
-45 12 0
-54 12 0
-21 14 0
-33 10 0
-18 10 0
-1 2 0
-15 3 0
-15 3 0
-21 14 0
-1 2 0
-41 27 0
-26 27 0
-55 48 0
-35 20 0
-37 6 0
-15 3 0
-8 4 0
-3 4 0
-41 27 0
-7 8 0
-41 27 0
-10 4 0
-37 6 0
-5 6 0
-25 2 0
-23 20 0
-41 27 0
-26 27 0
-14 53 0
-23 20 0
-23 20 0
-49 10 0
-39 6 0
-46 14 0
-41 27 0
-47 20 0
-21 14 0
-47 20 0
-56 30 0
-6 4 0
-37 6 0
-57 2 0
-20 4 0
-44 2 0
-29 30 0
-26 27 0
-42 30 0
-51 8 0
-32 3 0
-25 2 0
-51 8 0
-28 27 0
-58 14 0
-21 14 0
-5 6 0
-38 12 0
-49 10 0
-50 17 0
-29 30 0
-41 27 0
-15 3 0
-59 2 0
-40 20 0
-8 4 0
-18 10 0
-36 27 0
-20 4 0
-58 14 0
-5 6 0
-18 10 0
-43 8 0
-57 2 0
-56 30 0
-5 6 0
-2 4 0
-2 4 0
-28 27 0
-26 27 0
-59 2 0
-27 4 0
-36 27 0
-39 6 0
-25 2 0
-28 27 0
-1 2 0
-47 20 0
-39 6 0
-32 3 0
-36 27 0
-56 30 0
-5 6 0
-7 8 0
-45 12 0
-51 8 0
-23 20 0
-14 53 0
-7 8 0
-41 27 0
-57 2 0
-43 8 0
-5 6 0
-9 10 0
-60 12 0
-28 27 0
-9 10 0
-26 27 0
-29 30 0
-37 6 0
-56 30 0
-15 3 0
-52 20 0
-22 6 0
-35 20 0
-36 27 0
-57 2 0
-20 4 0
-32 3 0
-25 2 0
-27 4 0
-41 27 0
-39 6 0
-7 8 0
-41 27 0
-33 10 0
-31 12 0
-43 8 0
-52 20 0
-8 4 0
-22 6 0
-5 6 0
-30 53 0
-44 2 0
-54 12 0
-49 10 0
-19 20 0
-44 2 0
-21 14 0
-59 2 0
-22 6 0
-19 20 0
-52 20 0
-32 3 0
-11 12 0
-44 2 0
-51 8 0
-32 3 0
-58 14 0
-41 27 0
-7 8 0
-38 12 0
-15 3 0
-22 6 0
-56 30 0
-57 2 0
-42 30 0
-42 30 0
-8 4 0
-44 2 0
-39 6 0
-37 6 0
-25 2 0
-44 2 0
-22 6 0
-32 3 0
-33 10 0
-43 8 0
-43 8 0
-39 6 0
-56 30 0
-15 3 0
-26 27 0
-41 27 0
-20 4 0
-40 20 0
-7 8 0
-5 6 0
-32 3 0
-39 6 0
-1 2 0
-59 2 0
-15 3 0
-32 3 0
-28 27 0
-51 8 0
-22 6 0
-53 34 0
-5 6 0
-43 8 0
-43 8 0
-39 6 0
-28 27 0
-27 4 0
-2 4 0
-8 4 0
-5 6 0
-46 14 0
-27 4 0
-43 8 0
-45 12 0
-36 27 0
-19 20 0
-49 10 0
-52 20 0
-22 6 0
-43 8 0
-19 20 0
-51 8 0
-57 2 0
-32 3 0
-18 10 0
-49 10 0
-33 10 0
-15 3 0
-6 4 0
-46 14 0
-51 8 0
-19 20 0
-46 14 0
-24 20 0
-31 12 0
-16 17 0
-51 8 0
-39 6 0
-49 10 0
-39 6 0
-27 4 0
-10 4 0
-3 4 0
-30 53 0
-6 4 0
-13 14 0
-4 12 0
-60 12 0
-50 17 0
-23 20 0
-17 48 0
-55 48 0
-26 27 0
-29 30 0
-25 2 0
-15 3 0
-13 14 0
-24 20 0
-37 6 0
-46 14 0
-35 20 0
-54 12 0
-6 4 0
-36 27 0
-56 30 0
-38 12 0
-40 20 0
-51 8 0
-44 2 0
-53 34 0
-24 20 0
-28 27 0
-9 10 0
-46 14 0
-59 2 0
-41 27 0
-26 27 0
-22 6 0
-36 27 0
-16 17 0
-11 12 0
-2 4 0
-37 6 0
-35 20 0
-28 27 0
-10 4 0
-18 10 0
-2 4 0
-16 17 0
-52 20 0
-19 20 0
-58 14 0
-51 8 0
-37 6 0
-24 20 0
-46 14 0
-21 14 0
-42 30 0
-18 10 0
-13 14 0
-40 20 0
-5 6 0
-60 12 0
-6 4 0
-28 27 0
-33 10 0
-28 27 0
-37 6 0
-7 8 0
-30 53 0
-1 2 0
-59 2 0
-59 2 0
-40 20 0
-22 6 0
-42 30 0
-58 14 0
-23 20 0
-43 8 0
-37 6 0
-4 12 0
-40 20 0
-15 3 0
-26 27 0
-29 30 0
-26 27 0
-57 2 0
-39 6 0
-10 4 0
-3 4 0
-41 27 0
-36 27 0
-27 4 0
-29 30 0
-21 14 0
-5 6 0
-20 4 0
-36 27 0
-47 20 0
-50 17 0
-26 27 0
-24 20 0
-36 27 0
-54 12 0
-37 6 0
-26 27 0
-58 14 0
-60 12 0
-39 6 0
-10 4 0
-56 30 0
-49 10 0
-22 6 0
-8 4 0
-58 14 0
-37 6 0
-32 3 0
-51 8 0
-20 4 0
-28 27 0
-22 6 0
-42 30 0
-51 8 0
-26 27 0
-15 3 0
-10 4 0
-14 53 0
-6 4 0
-48 34 0
-22 6 0
-27 4 0
-36 27 0
-57 2 0
-15 3 0
-28 27 0
-51 8 0
-52 20 0
-41 27 0
-41 27 0
-22 6 0
-28 27 0
-23 20 0
-4 12 0
-59 2 0
-47 20 0
-19 20 0
-47 20 0
-7 8 0
-51 8 0
-3 4 0
-32 3 0
-43 8 0
-58 14 0
-3 4 0
34 0
-34 53 0
-4 3 0
-6 39 37 5 22 0
-39 -37 0
-37 -22 0
-37 -5 0
-5 -22 0
-39 -5 0
-39 -22 0
61 34 0
-34 12 0
-2 25 57 1 44 59 0
-57 -59 0
-25 -59 0
-1 -44 0
-57 -44 0
-25 -57 0
-25 -44 0
-25 -1 0
-57 -1 0
-44 -59 0
-1 -59 0
-4 27 0
-27 36 28 41 26 0
-36 -41 0
-36 -28 0
-28 -41 0
-41 -26 0
-28 -26 0
-36 -26 0
-10 33 9 18 49 0
-9 -18 0
-18 -49 0
-33 -18 0
-33 -9 0
-33 -49 0
-9 -49 0
-53 14 0
-3 15 32 0
-15 -32 0
-20 52 47 40 35 23 24 19 0
-40 -35 0
-35 -19 0
-40 -24 0
-52 -40 0
-52 -47 0
-35 -24 0
-23 -19 0
-52 -19 0
-47 -35 0
-40 -19 0
-52 -24 0
-47 -23 0
-35 -23 0
-23 -24 0
-24 -19 0
-47 -24 0
-52 -35 0
-52 -23 0
-47 -40 0
-40 -23 0
-47 -19 0
-17 16 50 0
-16 -50 0
-12 4 0
-4 8 0
-8 51 43 7 0
-51 -7 0
-51 -43 0
-43 -7 0
-53 30 0
-14 21 58 46 13 0
-21 -46 0
-21 -58 0
-58 -46 0
-58 -13 0
-46 -13 0
-21 -13 0
-4 6 0
-48 17 0
-49 21 28 0
-18 21 28 0
-9 28 0
33 -38 0
-33 -57 19 47 23 0
-21 41 0
-24 0
10 33 18 49 0
-33 21 27 0
-46 -48 0
-46 29 0
-46 56 0
-46 -42 0
-13 -48 0
-13 29 0
-13 56 0
-13 -42 0
58 21 -54 0
28 41 -54 0
-49 0
58 21 -45 0
-9 0
-1 0
-23 0
-33 -1 19 47 52 0
-57 0
-33 -25 19 47 24 0
-52 0
-13 37 0
46 37 -9 0
46 21 -9 0
-35 0
-58 7 43 0
-33 -44 19 47 35 0
-44 0
-33 0
-25 0
-33 2 0
-5 33 49 0
-33 -59 19 47 40 0
-18 -11 0
58 -11 0
39 22 -11 0
-58 43 22 39 5 0
-21 22 37 0
-46 22 37 0
-49 -20 0
-49 -2 0
-18 -20 0
-18 -2 0
-9 -20 0
-9 -2 0
-43 37 22 0
-58 48 0
-58 29 0
-58 42 0
-58 56 0
-21 48 0
-21 29 0
-21 42 0
-21 56 0
